c "604365.clq"
p edge 245 3664
e 1 17
e 1 18
e 1 19
e 1 20
e 1 21
e 1 22
e 1 23
e 1 24
e 1 25
e 1 29
e 1 30
e 1 33
e 1 35
e 1 37
e 1 39
e 1 41
e 1 48
e 1 50
e 1 55
e 1 65
e 1 66
e 1 67
e 1 70
e 1 72
e 1 77
e 1 78
e 1 80
e 1 83
e 1 85
e 1 93
e 1 108
e 1 135
e 1 138
e 1 153
e 1 160
e 1 173
e 1 186
e 1 195
e 1 202
e 1 218
e 1 227
e 1 233
e 2 17
e 2 18
e 2 19
e 2 20
e 2 23
e 2 34
e 2 44
e 2 46
e 2 47
e 2 48
e 2 55
e 2 56
e 2 80
e 2 139
e 2 179
e 2 233
e 2 236
e 3 17
e 3 18
e 3 19
e 3 20
e 3 21
e 3 22
e 3 23
e 3 27
e 3 28
e 3 30
e 3 37
e 3 38
e 3 43
e 3 46
e 3 48
e 3 63
e 3 76
e 3 88
e 3 90
e 3 97
e 3 98
e 3 101
e 3 102
e 3 109
e 3 113
e 3 114
e 3 118
e 3 123
e 3 127
e 3 129
e 3 135
e 3 137
e 3 146
e 3 189
e 3 193
e 3 211
e 3 213
e 3 219
e 3 230
e 3 239
e 4 17
e 4 18
e 4 19
e 4 20
e 4 25
e 4 28
e 4 29
e 4 30
e 4 35
e 4 44
e 4 47
e 4 49
e 4 51
e 4 52
e 4 53
e 4 57
e 4 59
e 4 63
e 4 70
e 4 81
e 4 82
e 4 97
e 4 102
e 4 105
e 4 107
e 4 111
e 4 112
e 4 114
e 4 118
e 4 140
e 4 141
e 4 162
e 4 194
e 4 197
e 4 210
e 4 216
e 4 224
e 4 226
e 5 17
e 5 18
e 5 19
e 5 20
e 5 21
e 5 22
e 5 23
e 5 24
e 5 26
e 5 27
e 5 30
e 5 31
e 5 34
e 5 36
e 5 37
e 5 39
e 5 42
e 5 48
e 5 51
e 5 60
e 5 62
e 5 64
e 5 66
e 5 70
e 5 73
e 5 77
e 5 80
e 5 85
e 5 86
e 5 92
e 5 94
e 5 103
e 5 115
e 5 117
e 5 124
e 5 125
e 5 132
e 5 139
e 5 141
e 5 148
e 5 172
e 5 186
e 5 190
e 5 195
e 5 199
e 5 202
e 5 205
e 5 212
e 5 217
e 5 230
e 5 233
e 5 236
e 6 17
e 6 18
e 6 19
e 6 20
e 6 21
e 6 22
e 6 24
e 6 25
e 6 26
e 6 27
e 6 30
e 6 31
e 6 33
e 6 34
e 6 37
e 6 39
e 6 41
e 6 42
e 6 44
e 6 45
e 6 48
e 6 51
e 6 52
e 6 53
e 6 56
e 6 60
e 6 62
e 6 66
e 6 71
e 6 73
e 6 74
e 6 76
e 6 77
e 6 82
e 6 89
e 6 94
e 6 98
e 6 104
e 6 123
e 6 124
e 6 126
e 6 127
e 6 130
e 6 141
e 6 149
e 6 154
e 6 164
e 6 167
e 6 173
e 6 194
e 6 196
e 6 197
e 6 199
e 6 205
e 6 210
e 6 214
e 6 216
e 6 217
e 6 222
e 6 232
e 6 245
e 7 17
e 7 18
e 7 19
e 7 21
e 7 22
e 7 23
e 7 24
e 7 28
e 7 31
e 7 32
e 7 35
e 7 36
e 7 37
e 7 39
e 7 54
e 7 64
e 7 65
e 7 74
e 7 75
e 7 76
e 7 79
e 7 84
e 7 86
e 7 108
e 7 111
e 7 139
e 7 144
e 7 160
e 7 218
e 7 230
e 7 234
e 8 17
e 8 18
e 8 19
e 8 20
e 8 28
e 8 33
e 8 48
e 8 49
e 8 58
e 8 60
e 8 76
e 8 78
e 8 98
e 8 107
e 8 109
e 8 112
e 8 125
e 8 155
e 8 173
e 8 174
e 8 183
e 8 188
e 8 193
e 8 232
e 9 17
e 9 18
e 9 19
e 9 20
e 9 21
e 9 22
e 9 23
e 9 26
e 9 27
e 9 28
e 9 29
e 9 45
e 9 47
e 9 57
e 9 60
e 9 67
e 9 81
e 9 86
e 9 88
e 9 91
e 9 98
e 9 103
e 9 115
e 9 121
e 9 128
e 9 131
e 9 138
e 9 141
e 9 152
e 9 177
e 9 178
e 9 182
e 9 199
e 9 206
e 9 211
e 9 220
e 10 17
e 10 19
e 10 20
e 10 22
e 10 24
e 10 25
e 10 26
e 10 29
e 10 31
e 10 34
e 10 38
e 10 44
e 10 54
e 10 56
e 10 57
e 10 67
e 10 91
e 10 103
e 10 117
e 10 122
e 10 135
e 10 156
e 10 157
e 10 170
e 10 179
e 10 217
e 10 223
e 11 17
e 11 18
e 11 20
e 11 21
e 11 24
e 11 25
e 11 26
e 11 27
e 11 29
e 11 30
e 11 31
e 11 33
e 11 35
e 11 36
e 11 37
e 11 38
e 11 39
e 11 41
e 11 43
e 11 44
e 11 51
e 11 52
e 11 57
e 11 59
e 11 62
e 11 63
e 11 65
e 11 67
e 11 69
e 11 73
e 11 74
e 11 88
e 11 91
e 11 93
e 11 100
e 11 104
e 11 112
e 11 122
e 11 128
e 11 132
e 11 152
e 11 154
e 11 169
e 11 175
e 11 179
e 11 181
e 11 183
e 11 185
e 11 201
e 11 205
e 11 207
e 11 216
e 11 220
e 11 234
e 11 236
e 12 17
e 12 18
e 12 21
e 12 23
e 12 24
e 12 25
e 12 26
e 12 29
e 12 32
e 12 36
e 12 39
e 12 43
e 12 50
e 12 74
e 12 86
e 12 88
e 12 121
e 12 122
e 12 125
e 12 131
e 12 134
e 12 153
e 12 155
e 12 184
e 12 187
e 12 193
e 12 201
e 12 203
e 12 206
e 12 211
e 12 215
e 12 217
e 12 228
e 12 245
e 13 17
e 13 18
e 13 19
e 13 21
e 13 22
e 13 23
e 13 24
e 13 25
e 13 26
e 13 27
e 13 28
e 13 29
e 13 31
e 13 32
e 13 33
e 13 41
e 13 45
e 13 49
e 13 50
e 13 53
e 13 56
e 13 71
e 13 73
e 13 75
e 13 78
e 13 81
e 13 85
e 13 94
e 13 106
e 13 112
e 13 115
e 13 117
e 13 119
e 13 128
e 13 134
e 13 136
e 13 147
e 13 148
e 13 152
e 13 154
e 13 161
e 13 170
e 13 176
e 13 184
e 13 233
e 13 238
e 13 241
e 13 244
e 14 17
e 14 18
e 14 19
e 14 20
e 14 21
e 14 22
e 14 26
e 14 29
e 14 33
e 14 38
e 14 40
e 14 42
e 14 43
e 14 44
e 14 47
e 14 49
e 14 87
e 14 99
e 14 123
e 14 141
e 14 164
e 14 181
e 14 192
e 14 201
e 14 209
e 14 217
e 14 220
e 14 228
e 14 230
e 14 233
e 14 237
e 14 240
e 15 17
e 15 18
e 15 19
e 15 20
e 15 21
e 15 22
e 15 23
e 15 25
e 15 26
e 15 27
e 15 32
e 15 33
e 15 36
e 15 39
e 15 44
e 15 49
e 15 51
e 15 54
e 15 60
e 15 65
e 15 66
e 15 70
e 15 97
e 15 101
e 15 112
e 15 115
e 15 126
e 15 130
e 15 131
e 15 149
e 15 155
e 15 158
e 15 162
e 15 214
e 15 218
e 15 238
e 15 242
e 15 245
e 16 17
e 16 18
e 16 19
e 16 20
e 16 21
e 16 22
e 16 23
e 16 24
e 16 25
e 16 27
e 16 28
e 16 29
e 16 30
e 16 33
e 16 35
e 16 40
e 16 41
e 16 45
e 16 52
e 16 69
e 16 87
e 16 90
e 16 91
e 16 94
e 16 95
e 16 97
e 16 100
e 16 121
e 16 128
e 16 130
e 16 140
e 16 142
e 16 150
e 16 151
e 16 153
e 16 162
e 16 169
e 16 170
e 16 171
e 16 192
e 16 205
e 16 206
e 16 216
e 16 217
e 16 228
e 17 18
e 17 19
e 17 20
e 17 21
e 17 22
e 17 23
e 17 24
e 17 26
e 17 27
e 17 28
e 17 30
e 17 31
e 17 32
e 17 33
e 17 34
e 17 40
e 17 41
e 17 42
e 17 45
e 17 46
e 17 47
e 17 49
e 17 50
e 17 51
e 17 53
e 17 54
e 17 55
e 17 56
e 17 57
e 17 59
e 17 61
e 17 64
e 17 67
e 17 68
e 17 69
e 17 72
e 17 77
e 17 80
e 17 81
e 17 82
e 17 84
e 17 85
e 17 88
e 17 90
e 17 93
e 17 96
e 17 98
e 17 99
e 17 101
e 17 107
e 17 108
e 17 109
e 17 112
e 17 119
e 17 121
e 17 127
e 17 130
e 17 144
e 17 145
e 17 155
e 17 156
e 17 159
e 17 162
e 17 163
e 17 164
e 17 167
e 17 169
e 17 171
e 17 178
e 17 179
e 17 191
e 17 198
e 17 205
e 17 210
e 17 231
e 17 232
e 17 235
e 17 240
e 18 19
e 18 20
e 18 21
e 18 22
e 18 23
e 18 24
e 18 25
e 18 27
e 18 28
e 18 29
e 18 30
e 18 31
e 18 33
e 18 34
e 18 35
e 18 37
e 18 38
e 18 40
e 18 42
e 18 44
e 18 47
e 18 48
e 18 52
e 18 53
e 18 54
e 18 59
e 18 62
e 18 63
e 18 64
e 18 66
e 18 70
e 18 73
e 18 74
e 18 79
e 18 86
e 18 91
e 18 92
e 18 100
e 18 101
e 18 102
e 18 103
e 18 107
e 18 108
e 18 111
e 18 113
e 18 118
e 18 120
e 18 125
e 18 126
e 18 129
e 18 131
e 18 135
e 18 136
e 18 139
e 18 143
e 18 144
e 18 147
e 18 151
e 18 166
e 18 171
e 18 173
e 18 174
e 18 176
e 18 177
e 18 179
e 18 185
e 18 188
e 18 189
e 18 192
e 18 193
e 18 206
e 18 207
e 18 215
e 18 216
e 18 228
e 18 232
e 18 235
e 18 242
e 19 20
e 19 21
e 19 22
e 19 23
e 19 24
e 19 25
e 19 26
e 19 27
e 19 28
e 19 30
e 19 32
e 19 33
e 19 34
e 19 35
e 19 38
e 19 39
e 19 40
e 19 42
e 19 43
e 19 44
e 19 45
e 19 46
e 19 47
e 19 49
e 19 57
e 19 58
e 19 63
e 19 65
e 19 69
e 19 70
e 19 78
e 19 80
e 19 88
e 19 90
e 19 92
e 19 97
e 19 98
e 19 101
e 19 102
e 19 104
e 19 109
e 19 111
e 19 113
e 19 117
e 19 120
e 19 121
e 19 122
e 19 125
e 19 126
e 19 129
e 19 133
e 19 136
e 19 141
e 19 142
e 19 147
e 19 150
e 19 152
e 19 154
e 19 163
e 19 164
e 19 166
e 19 167
e 19 170
e 19 171
e 19 178
e 19 180
e 19 184
e 19 188
e 19 189
e 19 191
e 19 193
e 19 196
e 19 199
e 19 206
e 19 207
e 19 208
e 19 214
e 19 219
e 19 221
e 19 225
e 19 230
e 19 235
e 20 21
e 20 22
e 20 23
e 20 24
e 20 25
e 20 26
e 20 27
e 20 28
e 20 29
e 20 30
e 20 31
e 20 32
e 20 35
e 20 36
e 20 37
e 20 43
e 20 49
e 20 54
e 20 60
e 20 62
e 20 65
e 20 74
e 20 83
e 20 85
e 20 86
e 20 91
e 20 94
e 20 97
e 20 99
e 20 104
e 20 105
e 20 106
e 20 116
e 20 122
e 20 127
e 20 129
e 20 130
e 20 136
e 20 138
e 20 144
e 20 146
e 20 156
e 20 165
e 20 169
e 20 172
e 20 173
e 20 200
e 20 210
e 20 219
e 20 228
e 20 230
e 20 242
e 20 243
e 20 245
e 21 22
e 21 23
e 21 24
e 21 25
e 21 26
e 21 27
e 21 31
e 21 34
e 21 36
e 21 37
e 21 39
e 21 40
e 21 41
e 21 42
e 21 43
e 21 48
e 21 56
e 21 58
e 21 59
e 21 62
e 21 63
e 21 67
e 21 70
e 21 72
e 21 74
e 21 76
e 21 77
e 21 81
e 21 82
e 21 84
e 21 86
e 21 87
e 21 92
e 21 93
e 21 94
e 21 96
e 21 100
e 21 101
e 21 102
e 21 105
e 21 106
e 21 107
e 21 116
e 21 117
e 21 127
e 21 134
e 21 138
e 21 141
e 21 143
e 21 144
e 21 150
e 21 152
e 21 154
e 21 155
e 21 164
e 21 166
e 21 171
e 21 177
e 21 179
e 21 190
e 21 196
e 21 202
e 21 204
e 21 206
e 21 209
e 21 223
e 21 236
e 21 240
e 22 23
e 22 24
e 22 25
e 22 26
e 22 28
e 22 29
e 22 30
e 22 32
e 22 33
e 22 34
e 22 35
e 22 36
e 22 40
e 22 42
e 22 43
e 22 44
e 22 45
e 22 50
e 22 53
e 22 54
e 22 55
e 22 57
e 22 59
e 22 62
e 22 64
e 22 67
e 22 68
e 22 77
e 22 80
e 22 83
e 22 85
e 22 93
e 22 94
e 22 95
e 22 99
e 22 105
e 22 111
e 22 114
e 22 121
e 22 126
e 22 137
e 22 146
e 22 148
e 22 154
e 22 162
e 22 168
e 22 169
e 22 171
e 22 176
e 22 191
e 22 205
e 22 219
e 22 225
e 23 24
e 23 25
e 23 27
e 23 28
e 23 29
e 23 30
e 23 31
e 23 32
e 23 34
e 23 36
e 23 38
e 23 39
e 23 42
e 23 43
e 23 44
e 23 46
e 23 47
e 23 53
e 23 57
e 23 59
e 23 61
e 23 62
e 23 66
e 23 67
e 23 71
e 23 72
e 23 74
e 23 75
e 23 76
e 23 81
e 23 82
e 23 84
e 23 88
e 23 92
e 23 95
e 23 97
e 23 100
e 23 102
e 23 108
e 23 112
e 23 123
e 23 124
e 23 125
e 23 132
e 23 147
e 23 148
e 23 150
e 23 156
e 23 166
e 23 171
e 23 175
e 23 178
e 23 187
e 23 188
e 23 190
e 23 197
e 23 202
e 23 209
e 23 213
e 23 214
e 23 229
e 23 232
e 23 234
e 23 237
e 24 25
e 24 26
e 24 27
e 24 28
e 24 30
e 24 31
e 24 32
e 24 34
e 24 36
e 24 37
e 24 39
e 24 40
e 24 41
e 24 48
e 24 50
e 24 51
e 24 55
e 24 57
e 24 61
e 24 64
e 24 65
e 24 71
e 24 72
e 24 75
e 24 76
e 24 79
e 24 80
e 24 82
e 24 84
e 24 93
e 24 98
e 24 100
e 24 106
e 24 115
e 24 121
e 24 122
e 24 123
e 24 127
e 24 132
e 24 138
e 24 140
e 24 144
e 24 148
e 24 158
e 24 161
e 24 162
e 24 163
e 24 167
e 24 173
e 24 188
e 24 190
e 24 193
e 24 194
e 24 195
e 24 196
e 24 205
e 24 214
e 24 215
e 24 217
e 24 221
e 24 226
e 24 227
e 24 228
e 24 231
e 24 237
e 24 238
e 25 26
e 25 28
e 25 30
e 25 31
e 25 32
e 25 33
e 25 34
e 25 37
e 25 40
e 25 42
e 25 43
e 25 46
e 25 49
e 25 50
e 25 51
e 25 52
e 25 53
e 25 54
e 25 56
e 25 59
e 25 60
e 25 61
e 25 62
e 25 67
e 25 68
e 25 72
e 25 73
e 25 77
e 25 78
e 25 79
e 25 80
e 25 81
e 25 83
e 25 84
e 25 86
e 25 88
e 25 92
e 25 94
e 25 96
e 25 98
e 25 108
e 25 110
e 25 116
e 25 120
e 25 128
e 25 129
e 25 130
e 25 131
e 25 138
e 25 140
e 25 142
e 25 145
e 25 146
e 25 152
e 25 157
e 25 159
e 25 160
e 25 176
e 25 184
e 25 198
e 25 206
e 25 223
e 25 225
e 25 236
e 25 244
e 26 27
e 26 28
e 26 29
e 26 31
e 26 32
e 26 34
e 26 35
e 26 38
e 26 40
e 26 41
e 26 42
e 26 45
e 26 46
e 26 48
e 26 51
e 26 55
e 26 58
e 26 59
e 26 60
e 26 63
e 26 64
e 26 71
e 26 75
e 26 78
e 26 80
e 26 81
e 26 83
e 26 84
e 26 85
e 26 89
e 26 94
e 26 95
e 26 99
e 26 100
e 26 102
e 26 106
e 26 109
e 26 114
e 26 116
e 26 117
e 26 119
e 26 124
e 26 127
e 26 128
e 26 137
e 26 141
e 26 157
e 26 158
e 26 163
e 26 166
e 26 170
e 26 172
e 26 175
e 26 178
e 26 180
e 26 183
e 26 192
e 26 196
e 26 204
e 26 205
e 26 208
e 26 209
e 26 211
e 26 213
e 26 214
e 26 219
e 26 221
e 26 226
e 26 235
e 26 241
e 27 29
e 27 32
e 27 33
e 27 34
e 27 36
e 27 37
e 27 39
e 27 40
e 27 41
e 27 42
e 27 43
e 27 44
e 27 46
e 27 47
e 27 48
e 27 49
e 27 58
e 27 60
e 27 61
e 27 66
e 27 68
e 27 69
e 27 70
e 27 73
e 27 78
e 27 79
e 27 82
e 27 89
e 27 92
e 27 98
e 27 100
e 27 105
e 27 107
e 27 109
e 27 115
e 27 116
e 27 118
e 27 124
e 27 129
e 27 135
e 27 139
e 27 141
e 27 143
e 27 149
e 27 157
e 27 158
e 27 165
e 27 168
e 27 169
e 27 173
e 27 174
e 27 177
e 27 179
e 27 180
e 27 181
e 27 198
e 27 199
e 27 201
e 27 211
e 27 225
e 27 231
e 27 244
e 28 29
e 28 30
e 28 33
e 28 36
e 28 37
e 28 38
e 28 39
e 28 40
e 28 43
e 28 51
e 28 52
e 28 53
e 28 58
e 28 61
e 28 62
e 28 66
e 28 67
e 28 73
e 28 74
e 28 75
e 28 78
e 28 89
e 28 91
e 28 93
e 28 94
e 28 96
e 28 97
e 28 99
e 28 101
e 28 104
e 28 115
e 28 120
e 28 124
e 28 130
e 28 133
e 28 135
e 28 142
e 28 148
e 28 156
e 28 165
e 28 170
e 28 174
e 28 176
e 28 179
e 28 180
e 28 182
e 28 188
e 28 189
e 28 190
e 28 195
e 28 198
e 28 201
e 28 203
e 28 212
e 28 213
e 28 218
e 28 220
e 28 221
e 28 223
e 28 229
e 28 232
e 28 235
e 28 237
e 28 240
e 29 31
e 29 32
e 29 33
e 29 34
e 29 35
e 29 39
e 29 40
e 29 41
e 29 44
e 29 45
e 29 47
e 29 49
e 29 51
e 29 54
e 29 57
e 29 64
e 29 68
e 29 69
e 29 71
e 29 72
e 29 79
e 29 81
e 29 84
e 29 87
e 29 89
e 29 91
e 29 100
e 29 104
e 29 105
e 29 107
e 29 108
e 29 111
e 29 112
e 29 119
e 29 132
e 29 134
e 29 137
e 29 139
e 29 142
e 29 145
e 29 159
e 29 163
e 29 172
e 29 182
e 29 183
e 29 209
e 30 31
e 30 32
e 30 35
e 30 36
e 30 37
e 30 38
e 30 40
e 30 41
e 30 45
e 30 46
e 30 48
e 30 50
e 30 53
e 30 55
e 30 56
e 30 59
e 30 63
e 30 65
e 30 68
e 30 74
e 30 87
e 30 94
e 30 95
e 30 103
e 30 110
e 30 111
e 30 117
e 30 118
e 30 120
e 30 122
e 30 128
e 30 135
e 30 136
e 30 147
e 30 149
e 30 159
e 30 161
e 30 164
e 30 172
e 30 173
e 30 179
e 30 190
e 30 193
e 30 196
e 30 202
e 30 210
e 30 223
e 30 227
e 30 229
e 30 232
e 31 32
e 31 34
e 31 35
e 31 37
e 31 38
e 31 40
e 31 41
e 31 46
e 31 48
e 31 50
e 31 52
e 31 53
e 31 54
e 31 58
e 31 59
e 31 62
e 31 63
e 31 64
e 31 66
e 31 68
e 31 72
e 31 73
e 31 86
e 31 87
e 31 114
e 31 126
e 31 129
e 31 133
e 31 134
e 31 138
e 31 147
e 31 152
e 31 164
e 31 169
e 31 174
e 31 176
e 31 178
e 31 182
e 31 193
e 31 204
e 31 212
e 31 216
e 31 233
e 31 236
e 31 237
e 31 243
e 32 35
e 32 36
e 32 38
e 32 41
e 32 43
e 32 44
e 32 45
e 32 48
e 32 50
e 32 52
e 32 54
e 32 55
e 32 58
e 32 60
e 32 63
e 32 64
e 32 67
e 32 68
e 32 75
e 32 80
e 32 83
e 32 84
e 32 90
e 32 96
e 32 99
e 32 107
e 32 114
e 32 119
e 32 136
e 32 137
e 32 146
e 32 147
e 32 150
e 32 151
e 32 158
e 32 160
e 32 169
e 32 174
e 32 177
e 32 195
e 32 205
e 32 206
e 32 224
e 32 228
e 32 231
e 32 241
e 33 35
e 33 36
e 33 37
e 33 38
e 33 44
e 33 45
e 33 61
e 33 62
e 33 66
e 33 69
e 33 74
e 33 78
e 33 86
e 33 87
e 33 88
e 33 93
e 33 95
e 33 100
e 33 112
e 33 117
e 33 132
e 33 136
e 33 137
e 33 146
e 33 151
e 33 155
e 33 156
e 33 157
e 33 167
e 33 170
e 33 185
e 33 191
e 33 214
e 33 224
e 33 239
e 33 244
e 34 35
e 34 38
e 34 45
e 34 46
e 34 49
e 34 51
e 34 52
e 34 55
e 34 58
e 34 60
e 34 62
e 34 65
e 34 67
e 34 70
e 34 82
e 34 88
e 34 90
e 34 95
e 34 96
e 34 98
e 34 103
e 34 115
e 34 117
e 34 123
e 34 127
e 34 135
e 34 136
e 34 145
e 34 146
e 34 153
e 34 158
e 34 163
e 34 165
e 34 210
e 34 214
e 34 215
e 34 234
e 35 36
e 35 38
e 35 42
e 35 45
e 35 46
e 35 49
e 35 51
e 35 54
e 35 56
e 35 57
e 35 58
e 35 63
e 35 65
e 35 71
e 35 74
e 35 75
e 35 77
e 35 80
e 35 81
e 35 83
e 35 97
e 35 103
e 35 116
e 35 119
e 35 122
e 35 123
e 35 124
e 35 125
e 35 126
e 35 128
e 35 134
e 35 136
e 35 140
e 35 143
e 35 145
e 35 168
e 35 178
e 35 183
e 35 184
e 35 186
e 35 187
e 35 192
e 35 198
e 35 202
e 35 207
e 35 212
e 35 213
e 35 214
e 35 215
e 35 230
e 35 233
e 35 240
e 36 38
e 36 43
e 36 44
e 36 46
e 36 49
e 36 50
e 36 52
e 36 55
e 36 58
e 36 67
e 36 71
e 36 73
e 36 74
e 36 80
e 36 82
e 36 83
e 36 90
e 36 92
e 36 104
e 36 108
e 36 113
e 36 114
e 36 125
e 36 134
e 36 141
e 36 163
e 36 165
e 36 175
e 36 177
e 36 191
e 36 199
e 36 212
e 36 214
e 36 227
e 36 234
e 36 242
e 37 39
e 37 40
e 37 41
e 37 51
e 37 57
e 37 58
e 37 62
e 37 69
e 37 70
e 37 72
e 37 83
e 37 88
e 37 89
e 37 93
e 37 96
e 37 98
e 37 99
e 37 101
e 37 103
e 37 109
e 37 114
e 37 128
e 37 131
e 37 134
e 37 135
e 37 142
e 37 149
e 37 151
e 37 154
e 37 158
e 37 161
e 37 168
e 37 172
e 37 173
e 37 178
e 37 180
e 37 188
e 37 202
e 37 207
e 37 210
e 37 227
e 37 236
e 37 243
e 38 39
e 38 41
e 38 42
e 38 45
e 38 46
e 38 47
e 38 50
e 38 61
e 38 68
e 38 69
e 38 73
e 38 80
e 38 83
e 38 85
e 38 87
e 38 89
e 38 95
e 38 103
e 38 106
e 38 107
e 38 108
e 38 112
e 38 115
e 38 126
e 38 131
e 38 136
e 38 142
e 38 143
e 38 147
e 38 149
e 38 154
e 38 161
e 38 172
e 38 183
e 38 192
e 38 196
e 38 203
e 38 217
e 38 227
e 38 236
e 38 237
e 38 242
e 38 244
e 39 42
e 39 43
e 39 46
e 39 50
e 39 51
e 39 52
e 39 53
e 39 60
e 39 61
e 39 67
e 39 69
e 39 73
e 39 76
e 39 78
e 39 79
e 39 82
e 39 83
e 39 87
e 39 89
e 39 91
e 39 93
e 39 94
e 39 100
e 39 103
e 39 106
e 39 113
e 39 114
e 39 116
e 39 119
e 39 123
e 39 130
e 39 132
e 39 135
e 39 139
e 39 141
e 39 142
e 39 146
e 39 152
e 39 153
e 39 154
e 39 157
e 39 159
e 39 166
e 39 167
e 39 170
e 39 172
e 39 178
e 39 182
e 39 192
e 39 195
e 39 196
e 39 197
e 39 215
e 39 220
e 39 225
e 39 232
e 39 233
e 40 43
e 40 47
e 40 48
e 40 50
e 40 52
e 40 53
e 40 56
e 40 61
e 40 63
e 40 66
e 40 68
e 40 77
e 40 79
e 40 81
e 40 86
e 40 87
e 40 96
e 40 98
e 40 99
e 40 102
e 40 106
e 40 109
e 40 112
e 40 126
e 40 133
e 40 139
e 40 150
e 40 152
e 40 166
e 40 174
e 40 176
e 40 177
e 40 182
e 40 208
e 40 216
e 40 237
e 40 242
e 41 42
e 41 47
e 41 50
e 41 53
e 41 54
e 41 56
e 41 71
e 41 76
e 41 77
e 41 84
e 41 90
e 41 116
e 41 120
e 41 124
e 41 129
e 41 138
e 41 143
e 41 149
e 41 150
e 41 153
e 41 160
e 41 164
e 41 165
e 41 175
e 41 183
e 41 186
e 41 191
e 41 196
e 41 209
e 41 214
e 41 239
e 41 244
e 42 47
e 42 48
e 42 49
e 42 57
e 42 60
e 42 61
e 42 64
e 42 65
e 42 76
e 42 77
e 42 81
e 42 82
e 42 84
e 42 85
e 42 86
e 42 89
e 42 91
e 42 129
e 42 139
e 42 142
e 42 145
e 42 153
e 42 155
e 42 161
e 42 164
e 42 171
e 42 174
e 42 176
e 42 179
e 42 184
e 42 187
e 42 190
e 42 198
e 42 201
e 42 202
e 42 210
e 42 220
e 42 221
e 42 224
e 42 226
e 43 47
e 43 54
e 43 59
e 43 68
e 43 87
e 43 89
e 43 91
e 43 92
e 43 101
e 43 113
e 43 118
e 43 121
e 43 141
e 43 145
e 43 151
e 43 157
e 43 163
e 43 189
e 43 200
e 43 204
e 43 208
e 43 222
e 43 225
e 43 228
e 43 237
e 44 45
e 44 46
e 44 53
e 44 54
e 44 55
e 44 56
e 44 66
e 44 70
e 44 71
e 44 93
e 44 97
e 44 100
e 44 104
e 44 116
e 44 118
e 44 134
e 44 144
e 44 145
e 44 153
e 44 160
e 44 162
e 44 168
e 44 178
e 44 180
e 44 201
e 44 210
e 44 213
e 44 219
e 44 231
e 44 232
e 44 237
e 44 238
e 44 240
e 44 242
e 45 47
e 45 55
e 45 59
e 45 61
e 45 66
e 45 67
e 45 68
e 45 70
e 45 75
e 45 80
e 45 82
e 45 88
e 45 89
e 45 90
e 45 92
e 45 95
e 45 99
e 45 102
e 45 106
e 45 112
e 45 115
e 45 119
e 45 123
e 45 132
e 45 152
e 45 153
e 45 166
e 45 175
e 45 176
e 45 184
e 45 195
e 45 200
e 45 211
e 45 221
e 45 222
e 45 243
e 46 49
e 46 50
e 46 51
e 46 53
e 46 55
e 46 56
e 46 57
e 46 58
e 46 68
e 46 72
e 46 77
e 46 87
e 46 91
e 46 98
e 46 113
e 46 118
e 46 122
e 46 126
e 46 133
e 46 134
e 46 140
e 46 146
e 46 160
e 46 161
e 46 191
e 46 194
e 46 207
e 46 225
e 46 231
e 46 232
e 47 52
e 47 64
e 47 68
e 47 69
e 47 72
e 47 78
e 47 89
e 47 92
e 47 95
e 47 100
e 47 107
e 47 109
e 47 111
e 47 127
e 47 132
e 47 143
e 47 158
e 47 166
e 47 187
e 47 220
e 47 237
e 48 58
e 48 70
e 48 71
e 48 74
e 48 75
e 48 83
e 48 91
e 48 99
e 48 103
e 48 108
e 48 110
e 48 111
e 48 112
e 48 128
e 48 137
e 48 146
e 48 151
e 48 161
e 48 162
e 48 169
e 48 188
e 48 195
e 48 199
e 48 203
e 48 212
e 48 227
e 48 245
e 49 52
e 49 55
e 49 56
e 49 59
e 49 61
e 49 63
e 49 64
e 49 69
e 49 76
e 49 82
e 49 83
e 49 87
e 49 92
e 49 100
e 49 109
e 49 124
e 49 126
e 49 136
e 49 140
e 49 148
e 49 170
e 49 171
e 49 177
e 49 186
e 49 221
e 49 224
e 49 227
e 49 234
e 49 239
e 50 52
e 50 58
e 50 59
e 50 61
e 50 62
e 50 70
e 50 73
e 50 75
e 50 76
e 50 78
e 50 79
e 50 81
e 50 85
e 50 88
e 50 89
e 50 93
e 50 96
e 50 97
e 50 98
e 50 104
e 50 113
e 50 114
e 50 116
e 50 118
e 50 124
e 50 131
e 50 150
e 50 151
e 50 156
e 50 160
e 50 164
e 50 170
e 50 175
e 50 180
e 50 183
e 50 184
e 50 185
e 50 192
e 50 194
e 50 195
e 50 199
e 50 214
e 50 219
e 50 224
e 50 225
e 50 229
e 50 230
e 51 62
e 51 66
e 51 71
e 51 88
e 51 94
e 51 97
e 51 105
e 51 107
e 51 125
e 51 140
e 51 159
e 51 161
e 51 162
e 51 174
e 51 180
e 51 181
e 51 203
e 51 207
e 51 227
e 51 233
e 51 242
e 52 54
e 52 55
e 52 56
e 52 57
e 52 64
e 52 65
e 52 68
e 52 69
e 52 71
e 52 77
e 52 84
e 52 106
e 52 109
e 52 117
e 52 119
e 52 123
e 52 136
e 52 140
e 52 144
e 52 190
e 52 192
e 52 197
e 52 200
e 52 217
e 52 232
e 52 239
e 53 59
e 53 63
e 53 66
e 53 73
e 53 74
e 53 80
e 53 81
e 53 89
e 53 95
e 53 105
e 53 117
e 53 118
e 53 129
e 53 131
e 53 138
e 53 146
e 53 156
e 53 185
e 53 206
e 53 208
e 53 212
e 53 227
e 53 235
e 53 240
e 53 241
e 54 55
e 54 64
e 54 65
e 54 72
e 54 76
e 54 85
e 54 86
e 54 88
e 54 93
e 54 98
e 54 103
e 54 106
e 54 108
e 54 110
e 54 120
e 54 123
e 54 134
e 54 158
e 54 160
e 54 166
e 54 212
e 54 221
e 54 245
e 55 56
e 55 65
e 55 69
e 55 74
e 55 79
e 55 84
e 55 93
e 55 94
e 55 102
e 55 107
e 55 110
e 55 121
e 55 124
e 55 133
e 55 143
e 55 151
e 55 152
e 55 157
e 55 163
e 55 174
e 55 179
e 55 180
e 55 190
e 55 196
e 55 203
e 55 234
e 55 245
e 56 57
e 56 60
e 56 61
e 56 72
e 56 75
e 56 84
e 56 90
e 56 100
e 56 107
e 56 109
e 56 122
e 56 124
e 56 125
e 56 128
e 56 131
e 56 135
e 56 145
e 56 146
e 56 152
e 56 154
e 56 164
e 56 172
e 56 177
e 56 183
e 56 193
e 56 218
e 56 229
e 56 235
e 56 236
e 56 241
e 57 58
e 57 60
e 57 73
e 57 79
e 57 83
e 57 90
e 57 99
e 57 109
e 57 115
e 57 120
e 57 124
e 57 138
e 57 154
e 57 156
e 57 166
e 57 181
e 57 185
e 57 199
e 57 204
e 57 209
e 57 215
e 58 60
e 58 65
e 58 66
e 58 78
e 58 81
e 58 96
e 58 105
e 58 114
e 58 128
e 58 160
e 58 164
e 58 166
e 58 169
e 58 178
e 58 183
e 58 186
e 58 187
e 58 197
e 58 199
e 58 214
e 58 222
e 58 225
e 58 227
e 58 234
e 58 235
e 58 245
e 59 64
e 59 68
e 59 69
e 59 70
e 59 75
e 59 79
e 59 87
e 59 90
e 59 102
e 59 105
e 59 107
e 59 110
e 59 113
e 59 119
e 59 126
e 59 128
e 59 138
e 59 147
e 59 154
e 59 168
e 59 171
e 59 179
e 59 180
e 59 185
e 59 186
e 59 216
e 59 222
e 60 61
e 60 69
e 60 71
e 60 73
e 60 79
e 60 82
e 60 92
e 60 95
e 60 104
e 60 105
e 60 109
e 60 126
e 60 129
e 60 132
e 60 137
e 60 138
e 60 150
e 60 153
e 60 165
e 60 173
e 60 182
e 60 191
e 60 206
e 60 209
e 60 223
e 60 224
e 60 228
e 61 63
e 61 76
e 61 78
e 61 97
e 61 99
e 61 104
e 61 116
e 61 117
e 61 126
e 61 179
e 61 180
e 61 181
e 61 189
e 61 192
e 61 195
e 61 201
e 61 202
e 61 204
e 61 208
e 61 215
e 61 218
e 62 63
e 62 71
e 62 88
e 62 92
e 62 94
e 62 106
e 62 118
e 62 124
e 62 129
e 62 130
e 62 131
e 62 152
e 62 155
e 62 157
e 62 160
e 62 170
e 62 202
e 62 208
e 62 216
e 62 241
e 63 65
e 63 67
e 63 70
e 63 101
e 63 111
e 63 118
e 63 130
e 63 142
e 63 147
e 63 148
e 63 156
e 63 188
e 63 215
e 63 218
e 63 219
e 63 222
e 63 237
e 64 85
e 64 99
e 64 101
e 64 102
e 64 104
e 64 113
e 64 119
e 64 122
e 64 127
e 64 133
e 64 142
e 64 148
e 64 170
e 64 172
e 64 178
e 64 185
e 64 233
e 64 240
e 65 72
e 65 75
e 65 82
e 65 90
e 65 101
e 65 104
e 65 106
e 65 119
e 65 124
e 65 125
e 65 131
e 65 137
e 65 140
e 65 148
e 65 162
e 65 164
e 65 184
e 65 194
e 65 200
e 65 210
e 65 218
e 65 232
e 66 72
e 66 77
e 66 85
e 66 86
e 66 108
e 66 110
e 66 133
e 66 137
e 66 148
e 66 150
e 66 155
e 66 175
e 66 193
e 66 203
e 66 215
e 66 216
e 67 75
e 67 78
e 67 97
e 67 101
e 67 105
e 67 108
e 67 110
e 67 116
e 67 133
e 67 144
e 67 148
e 67 149
e 67 163
e 67 172
e 67 196
e 67 204
e 67 217
e 67 218
e 67 225
e 67 239
e 67 240
e 67 245
e 68 78
e 68 85
e 68 105
e 68 106
e 68 120
e 68 122
e 68 139
e 68 154
e 68 155
e 68 161
e 68 164
e 68 171
e 68 190
e 68 195
e 68 199
e 68 212
e 68 226
e 68 230
e 68 231
e 68 238
e 68 241
e 69 76
e 69 98
e 69 105
e 69 115
e 69 127
e 69 136
e 69 153
e 69 160
e 69 188
e 69 189
e 69 198
e 69 200
e 69 245
e 70 71
e 70 75
e 70 76
e 70 79
e 70 87
e 70 90
e 70 91
e 70 94
e 70 103
e 70 113
e 70 119
e 70 122
e 70 139
e 70 149
e 70 153
e 70 159
e 70 167
e 70 185
e 70 186
e 70 188
e 70 204
e 70 210
e 70 221
e 70 222
e 70 231
e 70 243
e 71 72
e 71 79
e 71 84
e 71 91
e 71 101
e 71 103
e 71 110
e 71 114
e 71 120
e 71 155
e 71 179
e 71 190
e 71 201
e 71 206
e 71 207
e 71 213
e 71 216
e 71 228
e 71 234
e 71 241
e 72 83
e 72 89
e 72 97
e 72 108
e 72 111
e 72 115
e 72 134
e 72 142
e 72 166
e 72 209
e 72 226
e 72 233
e 72 243
e 72 244
e 73 77
e 73 95
e 73 125
e 73 126
e 73 155
e 73 166
e 73 167
e 73 181
e 73 201
e 73 202
e 73 222
e 73 229
e 74 81
e 74 83
e 74 89
e 74 93
e 74 95
e 74 143
e 74 155
e 74 160
e 74 170
e 74 201
e 74 214
e 74 215
e 74 223
e 74 240
e 75 86
e 75 118
e 75 123
e 75 144
e 75 149
e 75 154
e 75 169
e 75 188
e 75 197
e 75 205
e 75 231
e 75 233
e 75 243
e 76 77
e 76 84
e 76 86
e 76 100
e 76 102
e 76 106
e 76 107
e 76 121
e 76 123
e 76 144
e 76 151
e 76 172
e 76 183
e 76 186
e 76 193
e 76 194
e 76 208
e 76 209
e 76 230
e 76 237
e 77 79
e 77 90
e 77 92
e 77 111
e 77 115
e 77 121
e 77 132
e 77 133
e 77 143
e 77 213
e 77 226
e 77 232
e 77 240
e 77 243
e 78 80
e 78 82
e 78 85
e 78 96
e 78 97
e 78 107
e 78 111
e 78 113
e 78 129
e 78 135
e 78 153
e 78 163
e 78 171
e 78 176
e 78 182
e 78 183
e 78 187
e 78 190
e 78 194
e 78 213
e 78 223
e 78 244
e 79 85
e 79 96
e 79 114
e 79 133
e 79 137
e 79 217
e 80 91
e 80 123
e 80 125
e 80 132
e 80 144
e 80 165
e 80 199
e 80 200
e 81 96
e 81 130
e 81 131
e 81 135
e 81 172
e 81 180
e 81 183
e 81 188
e 81 204
e 81 212
e 81 245
e 82 87
e 82 101
e 82 110
e 82 114
e 82 119
e 82 121
e 82 129
e 82 135
e 82 143
e 82 154
e 82 161
e 82 182
e 82 190
e 82 220
e 82 221
e 82 237
e 83 104
e 83 110
e 83 117
e 83 133
e 83 167
e 83 170
e 83 183
e 83 191
e 83 194
e 83 219
e 84 111
e 84 118
e 84 120
e 84 123
e 84 127
e 84 137
e 84 149
e 84 220
e 84 231
e 85 110
e 85 123
e 85 135
e 85 173
e 85 180
e 85 183
e 85 197
e 85 200
e 85 207
e 85 226
e 85 242
e 86 111
e 86 117
e 86 120
e 86 121
e 86 132
e 86 136
e 86 137
e 86 141
e 86 145
e 86 184
e 86 217
e 86 223
e 87 90
e 87 108
e 87 113
e 87 120
e 87 129
e 87 134
e 87 155
e 87 156
e 87 159
e 87 162
e 87 164
e 87 175
e 87 189
e 87 209
e 87 224
e 87 239
e 88 117
e 88 118
e 88 120
e 88 174
e 88 198
e 88 203
e 89 95
e 89 96
e 89 102
e 89 103
e 89 110
e 89 116
e 89 130
e 89 136
e 89 139
e 89 145
e 89 169
e 89 177
e 89 186
e 89 193
e 89 194
e 89 205
e 89 220
e 89 229
e 89 241
e 90 92
e 90 93
e 90 96
e 90 110
e 90 113
e 90 122
e 90 154
e 90 161
e 90 165
e 90 171
e 90 175
e 90 178
e 90 180
e 90 186
e 90 192
e 90 223
e 90 226
e 90 230
e 91 103
e 91 105
e 91 106
e 91 109
e 91 117
e 91 132
e 91 136
e 91 144
e 91 173
e 91 174
e 91 189
e 91 198
e 91 200
e 91 206
e 91 208
e 91 215
e 91 233
e 91 238
e 92 104
e 92 112
e 92 113
e 92 116
e 92 122
e 92 171
e 92 189
e 92 194
e 92 221
e 93 95
e 93 105
e 93 116
e 93 131
e 93 198
e 94 96
e 94 99
e 94 109
e 94 127
e 94 139
e 94 151
e 94 161
e 94 179
e 94 199
e 94 221
e 94 224
e 95 102
e 95 121
e 95 141
e 95 148
e 95 150
e 95 158
e 95 159
e 95 161
e 95 166
e 95 168
e 95 175
e 95 209
e 95 243
e 96 122
e 96 179
e 97 99
e 97 104
e 97 135
e 97 143
e 97 151
e 97 153
e 97 157
e 97 181
e 97 187
e 97 192
e 97 202
e 97 204
e 97 210
e 97 228
e 97 243
e 98 102
e 98 108
e 98 110
e 98 112
e 98 115
e 98 130
e 98 133
e 98 141
e 98 156
e 98 158
e 98 164
e 98 199
e 98 229
e 98 235
e 99 146
e 99 147
e 99 167
e 99 168
e 99 178
e 99 191
e 99 217
e 99 219
e 99 234
e 100 101
e 100 112
e 100 113
e 100 114
e 100 130
e 100 146
e 100 159
e 100 178
e 100 181
e 100 208
e 100 241
e 101 125
e 101 185
e 101 213
e 101 240
e 102 133
e 102 143
e 102 158
e 102 161
e 102 189
e 102 210
e 103 131
e 103 138
e 103 142
e 103 159
e 103 167
e 103 208
e 104 111
e 104 115
e 104 118
e 104 119
e 104 121
e 104 158
e 104 167
e 104 236
e 104 239
e 105 163
e 105 168
e 105 185
e 105 215
e 105 238
e 106 110
e 106 120
e 106 127
e 106 138
e 106 173
e 106 208
e 106 224
e 106 225
e 106 229
e 106 232
e 106 234
e 106 235
e 107 119
e 107 121
e 107 133
e 107 197
e 107 222
e 108 143
e 108 162
e 108 165
e 108 187
e 108 196
e 108 213
e 108 224
e 108 234
e 109 114
e 109 134
e 109 138
e 109 140
e 109 150
e 109 151
e 109 155
e 109 156
e 109 165
e 109 197
e 109 206
e 109 216
e 109 235
e 109 237
e 110 131
e 110 132
e 110 137
e 110 141
e 110 147
e 110 150
e 110 156
e 110 165
e 110 176
e 110 186
e 110 194
e 110 235
e 110 242
e 111 140
e 111 147
e 111 151
e 111 167
e 111 181
e 111 207
e 111 242
e 112 120
e 112 157
e 112 169
e 112 221
e 112 224
e 112 228
e 112 233
e 113 196
e 113 224
e 113 234
e 114 116
e 114 130
e 114 134
e 114 145
e 114 152
e 114 160
e 114 174
e 114 188
e 114 218
e 114 225
e 114 238
e 114 240
e 114 244
e 114 245
e 115 127
e 115 137
e 115 174
e 115 175
e 115 176
e 115 186
e 115 195
e 115 203
e 115 228
e 115 239
e 116 128
e 116 143
e 116 145
e 116 151
e 116 156
e 116 166
e 116 180
e 116 185
e 116 198
e 116 238
e 117 126
e 117 129
e 117 142
e 117 157
e 117 159
e 117 176
e 117 187
e 117 203
e 117 204
e 117 211
e 118 125
e 118 178
e 119 124
e 119 125
e 119 132
e 119 139
e 119 142
e 119 212
e 119 229
e 120 157
e 120 177
e 120 190
e 120 192
e 120 196
e 120 209
e 120 212
e 120 229
e 120 239
e 120 245
e 121 127
e 121 145
e 121 146
e 122 139
e 122 140
e 122 149
e 122 163
e 122 177
e 122 189
e 122 217
e 122 227
e 122 236
e 123 137
e 123 191
e 123 199
e 124 128
e 124 148
e 124 149
e 124 150
e 124 161
e 124 188
e 124 194
e 124 216
e 124 217
e 125 130
e 125 134
e 125 139
e 125 159
e 125 165
e 125 172
e 125 181
e 125 185
e 125 192
e 125 218
e 125 242
e 126 128
e 126 138
e 126 175
e 126 202
e 126 216
e 126 230
e 127 149
e 127 158
e 127 159
e 127 171
e 127 234
e 128 173
e 128 191
e 128 198
e 128 219
e 128 221
e 128 227
e 128 241
e 129 140
e 129 147
e 129 157
e 129 158
e 129 162
e 129 175
e 129 181
e 129 184
e 129 207
e 129 208
e 129 220
e 130 142
e 130 165
e 130 169
e 130 186
e 130 189
e 130 206
e 130 220
e 130 227
e 130 228
e 130 239
e 131 133
e 132 148
e 132 162
e 132 173
e 132 208
e 132 218
e 132 223
e 132 230
e 132 236
e 133 187
e 133 207
e 133 236
e 133 239
e 134 140
e 134 145
e 134 159
e 134 213
e 134 222
e 135 144
e 135 145
e 135 148
e 135 149
e 135 151
e 135 168
e 135 177
e 135 183
e 135 200
e 135 201
e 135 205
e 135 231
e 136 181
e 136 203
e 136 226
e 136 230
e 137 140
e 137 144
e 137 149
e 137 168
e 137 194
e 137 218
e 138 156
e 138 159
e 138 162
e 138 177
e 138 184
e 138 198
e 138 205
e 138 221
e 139 147
e 139 206
e 140 143
e 140 144
e 140 146
e 140 226
e 141 147
e 141 150
e 141 157
e 141 167
e 141 170
e 141 175
e 141 182
e 141 188
e 141 215
e 142 162
e 142 172
e 142 182
e 143 158
e 143 226
e 144 169
e 144 171
e 144 200
e 144 201
e 144 210
e 145 150
e 145 152
e 145 177
e 145 195
e 145 200
e 145 211
e 145 214
e 146 201
e 146 211
e 146 213
e 146 217
e 148 167
e 149 153
e 149 157
e 149 160
e 149 202
e 149 203
e 149 211
e 149 222
e 150 152
e 150 153
e 150 168
e 150 175
e 150 181
e 150 184
e 150 187
e 151 163
e 151 169
e 151 176
e 151 201
e 151 223
e 151 245
e 152 155
e 152 163
e 152 196
e 152 197
e 153 212
e 153 222
e 153 229
e 153 235
e 153 238
e 154 160
e 154 211
e 154 225
e 155 172
e 156 165
e 156 177
e 156 185
e 157 167
e 157 170
e 157 176
e 157 193
e 157 207
e 157 239
e 158 189
e 158 197
e 158 198
e 158 199
e 158 211
e 159 163
e 159 182
e 159 190
e 159 191
e 159 202
e 160 184
e 160 216
e 161 168
e 161 174
e 161 181
e 161 182
e 161 195
e 161 204
e 161 206
e 161 208
e 161 211
e 161 218
e 162 168
e 162 174
e 162 194
e 162 200
e 162 203
e 162 204
e 162 236
e 162 240
e 162 242
e 162 243
e 163 165
e 163 190
e 163 198
e 163 219
e 163 228
e 163 230
e 164 195
e 164 222
e 165 168
e 165 176
e 165 180
e 165 182
e 165 189
e 165 238
e 166 168
e 166 173
e 166 191
e 166 200
e 166 201
e 166 241
e 167 184
e 167 186
e 167 192
e 167 194
e 167 221
e 167 235
e 167 236
e 167 245
e 168 237
e 168 239
e 169 228
e 169 242
e 170 182
e 170 225
e 170 241
e 171 200
e 171 229
e 171 238
e 172 185
e 172 207
e 172 209
e 172 211
e 172 231
e 172 235
e 172 238
e 173 192
e 173 204
e 174 202
e 174 205
e 174 225
e 174 231
e 175 182
e 175 185
e 175 193
e 175 197
e 175 218
e 175 223
e 176 181
e 176 186
e 176 187
e 176 191
e 176 197
e 176 212
e 177 187
e 177 197
e 177 200
e 177 222
e 178 184
e 178 189
e 178 191
e 178 203
e 178 224
e 178 232
e 179 243
e 180 211
e 180 218
e 180 224
e 180 226
e 180 235
e 181 187
e 181 195
e 181 205
e 181 210
e 181 244
e 182 234
e 183 230
e 184 193
e 184 203
e 184 209
e 184 223
e 185 187
e 185 205
e 185 229
e 185 238
e 185 241
e 186 196
e 186 204
e 186 222
e 186 236
e 186 245
e 187 207
e 187 223
e 187 225
e 188 204
e 189 193
e 189 211
e 189 231
e 190 207
e 190 214
e 190 243
e 191 216
e 191 219
e 192 197
e 192 215
e 192 222
e 193 241
e 194 220
e 195 198
e 195 213
e 197 213
e 197 234
e 198 240
e 200 203
e 200 213
e 203 212
e 203 233
e 204 208
e 204 219
e 205 215
e 205 241
e 205 244
e 206 209
e 206 210
e 206 220
e 206 227
e 206 229
e 206 243
e 207 226
e 208 212
e 209 243
e 211 220
e 212 219
e 212 220
e 213 219
e 213 244
e 214 231
e 215 223
e 216 227
e 219 232
e 219 239
e 220 229
e 221 231
e 221 244
e 222 226
e 222 239
e 223 224
e 223 226
e 224 240
e 228 233
e 228 244
e 229 238
e 229 244
e 232 237
e 232 243
e 233 242
e 234 238
e 234 242
e 239 244
